Version identifier: 22.1.0.0 | 2022-03-09 | 1a383f8ce
CPXPARAM_Read_DataCheck                          1
Tried aggregator 3 times.
MIP Presolve eliminated 3696 rows and 943 columns.
MIP Presolve modified 102 coefficients.
Aggregator did 2953 substitutions.
Reduced MIP has 881 rows, 3064 columns, and 6992 nonzeros.
Reduced MIP has 3052 binaries, 12 generals, 0 SOSs, and 0 indicators.
Presolve time = 0.02 sec. (22.04 ticks)
Probing fixed 24 vars, tightened 0 bounds.
Probing time = 0.01 sec. (4.11 ticks)
Tried aggregator 2 times.
Detecting symmetries...
MIP Presolve eliminated 30 rows and 38 columns.
Aggregator did 8 substitutions.
Reduced MIP has 843 rows, 3018 columns, and 6868 nonzeros.
Reduced MIP has 3006 binaries, 12 generals, 0 SOSs, and 0 indicators.
Presolve time = 0.01 sec. (7.92 ticks)
Probing time = 0.00 sec. (2.63 ticks)
Clique table members: 6632.
MIP emphasis: balance optimality and feasibility.
MIP search method: dynamic search.
Parallel mode: deterministic, using up to 8 threads.
Root relaxation solution time = 0.06 sec. (11.88 ticks)

        Nodes                                         Cuts/
   Node  Left     Objective  IInf  Best Integer    Best Bound    ItCnt     Gap

      0     0       12.3464   562                     12.3464      670         
      0     0       18.0000   345                    Cuts: 67     1327         
      0     0       18.0000   392                    Cuts: 32     1570         
*     0+    0                           22.0000       18.0000            18.18%
*     0+    0                           20.0000       18.0000            10.00%
      0     2       18.0000   330       20.0000       18.0000     1570   10.00%
Elapsed time = 1.63 sec. (1021.70 ticks, tree = 0.02 MB, solutions = 2)
     86    40    infeasible             20.0000       18.0000    10566   10.00%
    263   152       18.0000   218       20.0000       18.0000    30937   10.00%
    372   262       18.9319   185       20.0000       18.0000    58319   10.00%
    505   313       18.7500   184       20.0000       18.0000    75589   10.00%
    656   408       18.2812   193       20.0000       18.0000    98310   10.00%
    834   466       18.9231   182       20.0000       18.0000   115252   10.00%
   1009   585       18.2745   214       20.0000       18.0000   144723   10.00%
   1125   689    infeasible             20.0000       18.0000   175596   10.00%
   1231   745       18.0000   204       20.0000       18.0000   197115   10.00%
   1778  1037       19.0000   118       20.0000       18.0000   285423   10.00%
Elapsed time = 6.67 sec. (4151.59 ticks, tree = 1.61 MB, solutions = 2)
   2289  1323       18.2500   139       20.0000       18.0000   382613   10.00%
   2880  1635       18.0000   230       20.0000       18.0000   479375   10.00%
   3318  1915       18.0000   228       20.0000       18.0000   584779   10.00%

Performing restart 1

Repeating presolve.
Tried aggregator 2 times.
MIP Presolve eliminated 90 rows and 165 columns.
Aggregator did 120 substitutions.
Reduced MIP has 633 rows, 2733 columns, and 5962 nonzeros.
Reduced MIP has 2733 binaries, 0 generals, 0 SOSs, and 0 indicators.
Presolve time = 0.01 sec. (5.52 ticks)
Tried aggregator 1 time.
Reduced MIP has 633 rows, 2733 columns, and 5962 nonzeros.
Reduced MIP has 2733 binaries, 0 generals, 0 SOSs, and 0 indicators.
Presolve time = 0.00 sec. (4.61 ticks)
Represolve time = 0.03 sec. (21.55 ticks)
   3365     0       18.0000   317       20.0000       Cuts: 4   608204   10.00%
   3365     0       18.0000   233       20.0000       Cuts: 7   608522   10.00%
   3365     0       18.0000   195       20.0000      Cuts: 56   609064   10.00%
   3365     0       18.0000   267       20.0000      Cuts: 37   609469   10.00%
   3365     0       18.0000   245       20.0000       Cuts: 6   609707   10.00%
   3365     0       18.0000   304       20.0000      Cuts: 39   610087   10.00%
   3365     0       18.0000   228       20.0000       Cuts: 3   610526   10.00%
   3365     0       18.0000   278       20.0000      Cuts: 47   610889   10.00%
   3365     0       18.0000   271       20.0000   ZeroHalf: 7   611085    8.75%
   3365     2       18.0000   256       20.0000       18.2500   611085    8.75%
   3511    77       18.5000   162       20.0000       18.2500   636518    8.75%
   4110   390       18.5000   275       20.0000       18.3333   703818    8.33%
   4679   671       19.0000   217       20.0000       18.5000   787707    7.50%
   5224   891       19.0000   163       20.0000       18.5000   873905    7.50%
   5919  1006        cutoff             20.0000       18.6667   949910    6.67%
   6710   945       19.0000   135       20.0000       19.0000  1054938    5.00%
Elapsed time = 25.08 sec. (15102.97 ticks, tree = 4.16 MB, solutions = 2)
   7643   815        cutoff             20.0000       19.0000  1142694    5.00%
   8390   655        cutoff             20.0000       19.0000  1239932    5.00%
   9080   505       19.0000   176       20.0000       19.0000  1338758    5.00%
   9894   397        cutoff             20.0000       19.0000  1420554    5.00%
  10420   312       19.0000    83       20.0000       19.0000  1527311    5.00%
  11076   248       19.0000    38       20.0000       19.0000  1634519    5.00%
  11738   152       19.0000   122       20.0000       19.0000  1730635    5.00%
  12509   111       19.0000   148       20.0000       19.0000  1815225    5.00%
  13079    64        cutoff             20.0000       19.0000  1938928    5.00%

Clique cuts applied:  8
Cover cuts applied:  5
Mixed integer rounding cuts applied:  3
Zero-half cuts applied:  86
Lift and project cuts applied:  12
Gomory fractional cuts applied:  28

Root node processing (before b&c):
  Real time             =    1.62 sec. (1021.01 ticks)
Parallel b&c, 8 threads:
  Real time             =   39.10 sec. (23462.13 ticks)
  Sync time (average)   =    6.42 sec.
  Wait time (average)   =    0.02 sec.
                          ------------
Total (root+branch&cut) =   40.72 sec. (24483.14 ticks)
